Gurobi Optimizer version 12.0.1 build v12.0.1rc0 (mac64[arm] - Darwin 24.5.0 24F74)

Read MPS format model from file model1.rew.bz2

CPU model: Apple M4 Pro
Thread count: 12 physical cores, 12 logical processors, using up to 12 threads

Non-default parameters:
PoolSolutions  100

Optimize a model with 1 rows, 20 columns and 20 nonzeros
Model fingerprint: 0x82f8d485
Variable types: 0 continuous, 20 integer (20 binary)
Coefficient statistics:
  Matrix range     [1e+00, 1e+00]
  Objective range  [1e+00, 1e+00]
  Bounds range     [1e+00, 1e+00]
  RHS range        [1e+01, 1e+01]

---------------------------------------------------------------------------
Multi-objectives: starting optimization with 4 objectives (3 combined)...
---------------------------------------------------------------------------

Multi-objectives: applying initial presolve...
---------------------------------------------------------------------------

Presolve time: 0.00s
Presolved: 1 rows, 20 columns, 20 nonzeros

Multi-objectives: optimize objective 1 (Set0) ...
---------------------------------------------------------------------------

Found heuristic solution: objective 10.0000000

Explored 0 nodes (0 simplex iterations) in 0.01 seconds (0.00 work units)
Thread count was 1 (of 12 available processors)

Solution count 1: 10

Optimal solution found (tolerance 1.00e-04)
Best objective 1.000000000000e+01, best bound 1.000000000000e+01, gap 0.0000%
---------------------------------------------------------------------------

Multi-objectives: optimize objective 2 (weighted) ...
---------------------------------------------------------------------------


Loaded user MIP start with objective 6.25

Presolve removed 2 rows and 20 columns
Presolve time: 0.00s
Presolve: All rows and columns removed

Explored 0 nodes (0 simplex iterations) in 0.02 seconds (0.00 work units)
Thread count was 1 (of 12 available processors)

Solution count 2: 10.5 6.25

Optimal solution found (tolerance 1.00e-04)
Best objective 1.050000000000e+01, best bound 1.050000000000e+01, gap 0.0000%
---------------------------------------------------------------------------

Multi-objectives: optimize objective 3 (Set3) ...
---------------------------------------------------------------------------


Loaded user MIP start with objective 6

Presolve removed 3 rows and 20 columns
Presolve time: 0.00s
Presolve: All rows and columns removed

Explored 0 nodes (0 simplex iterations) in 0.02 seconds (0.00 work units)
Thread count was 1 (of 12 available processors)

Solution count 2: 7 6

Optimal solution found (tolerance 1.00e-04)
Best objective 7.000000000000e+00, best bound 7.000000000000e+00, gap 0.0000%

---------------------------------------------------------------------------
Multi-objectives: solved in 0.02 seconds (0.00 work units), solution count 3
